(set-info :source  loris-7.ddns.comp.nus.edu.sg/~project/hip/) 
;Variables declarations
(declare-fun mi_1622 () Int)
(declare-fun l_1621 () Int)
(declare-fun s_1620 () Int)
(declare-fun n_1619 () Int)
(declare-fun xnext_primed () Int)
(declare-fun p_1599 () Int)
(declare-fun Anon_13_primed () Int)
(declare-fun flted_9_1597 () Int)
(declare-fun tmi_1600 () Int)
(declare-fun sm_1595 () Int)
(declare-fun s () Int)
(declare-fun bg_1596 () Int)
(declare-fun l () Int)
(declare-fun x_primed () Int)
(declare-fun x () Int)
(declare-fun n () Int)
(declare-fun a () Int)
(declare-fun mi () Int)
(declare-fun d_1598 () Int)
(declare-fun a_primed () Int)
(declare-fun v_bool_41_1456_primed () Int)
;Relations declarations
;Axioms assertions
;Antecedent
(assert (= mi_1622 tmi_1600))
(assert (= l_1621 bg_1596))
(assert (= s_1620 sm_1595))
(assert (= n_1619 flted_9_1597))
(assert (= xnext_primed p_1599))
(assert (= Anon_13_primed d_1598))
(assert (= (+ flted_9_1597 1) n))
(assert (<= s d_1598))
(assert (< d_1598 l))
(assert (or (and (= mi d_1598) (< d_1598 tmi_1600)) (and (= mi tmi_1600) (>= d_1598 tmi_1600))))
(assert (<= s mi))
(assert (< mi l))
(assert (= sm_1595 s))
(assert (= bg_1596 l))
(assert (= x_primed x))
(assert (= a_primed a))
(assert (<= 1 n))
(assert (= a mi))
(assert (not (= d_1598 a_primed)))
(assert (not (> v_bool_41_1456_primed 0)))
;Negation of Consequence
(assert (not false))
(check-sat)